p edge 100 1432
e 4 1
e 5 1
e 14 1
e 15 1
e 18 1
e 29 1
e 31 1
e 33 1
e 35 1
e 36 1
e 37 1
e 39 1
e 43 1
e 45 1
e 46 1
e 48 1
e 50 1
e 58 1
e 61 1
e 62 1
e 70 1
e 73 1
e 78 1
e 85 1
e 87 1
e 90 1
e 95 1
e 98 1
e 3 2
e 9 2
e 12 2
e 17 2
e 18 2
e 20 2
e 21 2
e 22 2
e 28 2
e 31 2
e 35 2
e 44 2
e 45 2
e 47 2
e 48 2
e 54 2
e 56 2
e 60 2
e 64 2
e 66 2
e 67 2
e 68 2
e 73 2
e 76 2
e 77 2
e 82 2
e 90 2
e 93 2
e 98 2
e 99 2
e 4 3
e 9 3
e 11 3
e 12 3
e 14 3
e 24 3
e 37 3
e 38 3
e 41 3
e 47 3
e 52 3
e 54 3
e 57 3
e 60 3
e 61 3
e 64 3
e 67 3
e 69 3
e 71 3
e 72 3
e 73 3
e 77 3
e 78 3
e 79 3
e 83 3
e 85 3
e 86 3
e 92 3
e 95 3
e 96 3
e 98 3
e 99 3
e 5 4
e 6 4
e 8 4
e 10 4
e 15 4
e 19 4
e 22 4
e 29 4
e 30 4
e 35 4
e 37 4
e 39 4
e 40 4
e 42 4
e 44 4
e 49 4
e 50 4
e 51 4
e 52 4
e 54 4
e 57 4
e 60 4
e 61 4
e 71 4
e 80 4
e 82 4
e 91 4
e 98 4
e 100 4
e 7 5
e 14 5
e 22 5
e 24 5
e 28 5
e 30 5
e 32 5
e 33 5
e 34 5
e 35 5
e 38 5
e 41 5
e 43 5
e 45 5
e 48 5
e 50 5
e 52 5
e 54 5
e 58 5
e 60 5
e 65 5
e 68 5
e 69 5
e 70 5
e 74 5
e 77 5
e 79 5
e 92 5
e 99 5
e 100 5
e 16 6
e 18 6
e 19 6
e 21 6
e 26 6
e 29 6
e 30 6
e 33 6
e 35 6
e 40 6
e 42 6
e 43 6
e 64 6
e 66 6
e 68 6
e 78 6
e 80 6
e 82 6
e 83 6
e 84 6
e 86 6
e 87 6
e 91 6
e 93 6
e 95 6
e 100 6
e 9 7
e 10 7
e 16 7
e 18 7
e 21 7
e 27 7
e 30 7
e 35 7
e 38 7
e 40 7
e 48 7
e 53 7
e 56 7
e 61 7
e 65 7
e 67 7
e 71 7
e 73 7
e 77 7
e 79 7
e 80 7
e 84 7
e 85 7
e 86 7
e 89 7
e 94 7
e 100 7
e 11 8
e 16 8
e 25 8
e 30 8
e 31 8
e 37 8
e 43 8
e 47 8
e 55 8
e 60 8
e 61 8
e 63 8
e 65 8
e 66 8
e 67 8
e 71 8
e 73 8
e 75 8
e 83 8
e 91 8
e 14 9
e 15 9
e 19 9
e 24 9
e 25 9
e 28 9
e 29 9
e 30 9
e 32 9
e 35 9
e 40 9
e 41 9
e 43 9
e 44 9
e 45 9
e 48 9
e 50 9
e 56 9
e 58 9
e 60 9
e 67 9
e 77 9
e 78 9
e 80 9
e 83 9
e 90 9
e 93 9
e 96 9
e 98 9
e 100 9
e 14 10
e 17 10
e 23 10
e 29 10
e 30 10
e 33 10
e 34 10
e 36 10
e 37 10
e 38 10
e 41 10
e 43 10
e 46 10
e 48 10
e 52 10
e 53 10
e 54 10
e 55 10
e 56 10
e 57 10
e 66 10
e 73 10
e 76 10
e 77 10
e 78 10
e 80 10
e 85 10
e 89 10
e 92 10
e 97 10
e 98 10
e 12 11
e 14 11
e 15 11
e 22 11
e 28 11
e 30 11
e 33 11
e 38 11
e 40 11
e 45 11
e 47 11
e 48 11
e 50 11
e 51 11
e 52 11
e 53 11
e 54 11
e 59 11
e 61 11
e 62 11
e 65 11
e 66 11
e 68 11
e 75 11
e 80 11
e 83 11
e 89 11
e 92 11
e 95 11
e 98 11
e 14 12
e 18 12
e 19 12
e 26 12
e 27 12
e 30 12
e 33 12
e 34 12
e 35 12
e 36 12
e 39 12
e 42 12
e 51 12
e 56 12
e 57 12
e 64 12
e 66 12
e 70 12
e 73 12
e 74 12
e 76 12
e 78 12
e 83 12
e 86 12
e 87 12
e 90 12
e 94 12
e 97 12
e 99 12
e 17 13
e 25 13
e 30 13
e 31 13
e 34 13
e 36 13
e 38 13
e 39 13
e 41 13
e 50 13
e 51 13
e 52 13
e 64 13
e 78 13
e 81 13
e 82 13
e 87 13
e 88 13
e 89 13
e 91 13
e 93 13
e 96 13
e 16 14
e 18 14
e 19 14
e 22 14
e 23 14
e 24 14
e 25 14
e 28 14
e 31 14
e 32 14
e 38 14
e 40 14
e 41 14
e 43 14
e 44 14
e 45 14
e 46 14
e 48 14
e 49 14
e 59 14
e 67 14
e 68 14
e 72 14
e 75 14
e 79 14
e 88 14
e 93 14
e 95 14
e 100 14
e 17 15
e 19 15
e 22 15
e 25 15
e 27 15
e 29 15
e 38 15
e 46 15
e 54 15
e 60 15
e 63 15
e 66 15
e 68 15
e 70 15
e 77 15
e 78 15
e 80 15
e 93 15
e 96 15
e 97 15
e 99 15
e 19 16
e 21 16
e 22 16
e 25 16
e 29 16
e 32 16
e 36 16
e 37 16
e 38 16
e 41 16
e 44 16
e 46 16
e 51 16
e 60 16
e 62 16
e 64 16
e 67 16
e 69 16
e 70 16
e 71 16
e 74 16
e 77 16
e 78 16
e 79 16
e 82 16
e 93 16
e 100 16
e 22 17
e 24 17
e 25 17
e 27 17
e 28 17
e 29 17
e 31 17
e 36 17
e 37 17
e 38 17
e 40 17
e 44 17
e 48 17
e 51 17
e 55 17
e 56 17
e 63 17
e 64 17
e 73 17
e 75 17
e 79 17
e 85 17
e 88 17
e 89 17
e 91 17
e 92 17
e 94 17
e 96 17
e 19 18
e 20 18
e 23 18
e 24 18
e 27 18
e 29 18
e 31 18
e 32 18
e 35 18
e 39 18
e 41 18
e 43 18
e 45 18
e 47 18
e 52 18
e 54 18
e 64 18
e 68 18
e 71 18
e 76 18
e 86 18
e 88 18
e 89 18
e 93 18
e 95 18
e 22 19
e 32 19
e 36 19
e 44 19
e 46 19
e 47 19
e 49 19
e 56 19
e 59 19
e 60 19
e 66 19
e 67 19
e 74 19
e 75 19
e 79 19
e 82 19
e 86 19
e 88 19
e 90 19
e 92 19
e 94 19
e 95 19
e 96 19
e 97 19
e 98 19
e 22 20
e 26 20
e 27 20
e 32 20
e 43 20
e 46 20
e 55 20
e 59 20
e 62 20
e 65 20
e 66 20
e 71 20
e 77 20
e 82 20
e 87 20
e 88 20
e 90 20
e 97 20
e 99 20
e 100 20
e 26 21
e 33 21
e 35 21
e 39 21
e 41 21
e 43 21
e 44 21
e 48 21
e 49 21
e 50 21
e 55 21
e 58 21
e 67 21
e 69 21
e 70 21
e 87 21
e 89 21
e 100 21
e 23 22
e 35 22
e 46 22
e 56 22
e 58 22
e 62 22
e 63 22
e 67 22
e 72 22
e 77 22
e 78 22
e 81 22
e 85 22
e 86 22
e 93 22
e 96 22
e 98 22
e 99 22
e 100 22
e 24 23
e 31 23
e 35 23
e 39 23
e 47 23
e 55 23
e 56 23
e 57 23
e 58 23
e 71 23
e 81 23
e 82 23
e 85 23
e 86 23
e 89 23
e 92 23
e 98 23
e 29 24
e 32 24
e 33 24
e 34 24
e 38 24
e 40 24
e 48 24
e 51 24
e 66 24
e 67 24
e 72 24
e 75 24
e 77 24
e 78 24
e 82 24
e 85 24
e 86 24
e 88 24
e 95 24
e 96 24
e 98 24
e 27 25
e 33 25
e 36 25
e 37 25
e 39 25
e 40 25
e 44 25
e 45 25
e 47 25
e 50 25
e 51 25
e 53 25
e 54 25
e 55 25
e 57 25
e 59 25
e 60 25
e 61 25
e 62 25
e 78 25
e 81 25
e 86 25
e 88 25
e 90 25
e 97 25
e 99 25
e 28 26
e 29 26
e 30 26
e 31 26
e 32 26
e 35 26
e 36 26
e 39 26
e 41 26
e 42 26
e 44 26
e 46 26
e 56 26
e 57 26
e 66 26
e 69 26
e 74 26
e 87 26
e 90 26
e 92 26
e 95 26
e 96 26
e 100 26
e 32 27
e 43 27
e 46 27
e 58 27
e 65 27
e 74 27
e 76 27
e 77 27
e 81 27
e 82 27
e 83 27
e 84 27
e 85 27
e 87 27
e 89 27
e 94 27
e 97 27
e 29 28
e 33 28
e 38 28
e 41 28
e 46 28
e 47 28
e 48 28
e 53 28
e 56 28
e 58 28
e 59 28
e 61 28
e 63 28
e 66 28
e 67 28
e 69 28
e 71 28
e 74 28
e 79 28
e 80 28
e 83 28
e 90 28
e 95 28
e 32 29
e 34 29
e 39 29
e 43 29
e 49 29
e 51 29
e 52 29
e 61 29
e 63 29
e 64 29
e 67 29
e 68 29
e 69 29
e 87 29
e 88 29
e 90 29
e 91 29
e 95 29
e 31 30
e 32 30
e 36 30
e 37 30
e 40 30
e 43 30
e 47 30
e 49 30
e 52 30
e 58 30
e 66 30
e 69 30
e 71 30
e 78 30
e 81 30
e 89 30
e 93 30
e 94 30
e 35 31
e 37 31
e 40 31
e 43 31
e 46 31
e 49 31
e 56 31
e 57 31
e 67 31
e 70 31
e 71 31
e 73 31
e 76 31
e 81 31
e 84 31
e 85 31
e 88 31
e 90 31
e 92 31
e 97 31
e 98 31
e 33 32
e 37 32
e 43 32
e 48 32
e 52 32
e 53 32
e 59 32
e 63 32
e 64 32
e 67 32
e 70 32
e 74 32
e 76 32
e 78 32
e 83 32
e 91 32
e 92 32
e 97 32
e 34 33
e 39 33
e 46 33
e 53 33
e 58 33
e 60 33
e 62 33
e 65 33
e 67 33
e 68 33
e 72 33
e 75 33
e 76 33
e 79 33
e 85 33
e 86 33
e 93 33
e 94 33
e 96 33
e 100 33
e 35 34
e 37 34
e 40 34
e 42 34
e 46 34
e 50 34
e 54 34
e 55 34
e 56 34
e 58 34
e 60 34
e 62 34
e 64 34
e 66 34
e 82 34
e 86 34
e 91 34
e 92 34
e 94 34
e 96 34
e 36 35
e 37 35
e 38 35
e 39 35
e 41 35
e 46 35
e 51 35
e 54 35
e 56 35
e 62 35
e 64 35
e 66 35
e 69 35
e 74 35
e 80 35
e 81 35
e 83 35
e 84 35
e 97 35
e 100 35
e 37 36
e 39 36
e 41 36
e 43 36
e 44 36
e 55 36
e 60 36
e 62 36
e 67 36
e 69 36
e 75 36
e 83 36
e 85 36
e 89 36
e 90 36
e 92 36
e 94 36
e 95 36
e 99 36
e 40 37
e 43 37
e 44 37
e 48 37
e 58 37
e 64 37
e 66 37
e 67 37
e 68 37
e 69 37
e 73 37
e 75 37
e 76 37
e 87 37
e 88 37
e 39 38
e 47 38
e 53 38
e 55 38
e 56 38
e 64 38
e 65 38
e 66 38
e 67 38
e 69 38
e 72 38
e 75 38
e 78 38
e 93 38
e 94 38
e 98 38
e 41 39
e 43 39
e 45 39
e 47 39
e 48 39
e 54 39
e 56 39
e 61 39
e 65 39
e 69 39
e 75 39
e 77 39
e 79 39
e 83 39
e 84 39
e 92 39
e 43 40
e 50 40
e 52 40
e 55 40
e 57 40
e 68 40
e 69 40
e 72 40
e 85 40
e 89 40
e 93 40
e 95 40
e 99 40
e 46 41
e 49 41
e 53 41
e 54 41
e 55 41
e 64 41
e 67 41
e 68 41
e 69 41
e 76 41
e 82 41
e 83 41
e 88 41
e 96 41
e 98 41
e 100 41
e 45 42
e 54 42
e 56 42
e 58 42
e 64 42
e 74 42
e 78 42
e 79 42
e 81 42
e 82 42
e 83 42
e 85 42
e 88 42
e 92 42
e 49 43
e 53 43
e 56 43
e 57 43
e 60 43
e 66 43
e 71 43
e 77 43
e 83 43
e 87 43
e 89 43
e 91 43
e 92 43
e 96 43
e 47 44
e 58 44
e 64 44
e 68 44
e 72 44
e 73 44
e 88 44
e 95 44
e 99 44
e 100 44
e 46 45
e 48 45
e 49 45
e 51 45
e 52 45
e 55 45
e 59 45
e 60 45
e 62 45
e 64 45
e 65 45
e 79 45
e 84 45
e 86 45
e 93 45
e 100 45
e 53 46
e 54 46
e 55 46
e 58 46
e 59 46
e 61 46
e 65 46
e 67 46
e 68 46
e 69 46
e 70 46
e 75 46
e 77 46
e 80 46
e 81 46
e 82 46
e 86 46
e 87 46
e 91 46
e 93 46
e 95 46
e 98 46
e 100 46
e 48 47
e 49 47
e 50 47
e 52 47
e 56 47
e 57 47
e 61 47
e 62 47
e 68 47
e 74 47
e 75 47
e 76 47
e 78 47
e 81 47
e 90 47
e 91 47
e 92 47
e 96 47
e 100 47
e 50 48
e 52 48
e 53 48
e 57 48
e 58 48
e 61 48
e 65 48
e 69 48
e 70 48
e 73 48
e 74 48
e 76 48
e 81 48
e 83 48
e 84 48
e 87 48
e 90 48
e 91 48
e 92 48
e 93 48
e 50 49
e 55 49
e 57 49
e 59 49
e 66 49
e 71 49
e 84 49
e 85 49
e 87 49
e 89 49
e 91 49
e 95 49
e 100 49
e 54 50
e 57 50
e 59 50
e 60 50
e 61 50
e 62 50
e 66 50
e 74 50
e 78 50
e 80 50
e 82 50
e 83 50
e 86 50
e 87 50
e 88 50
e 90 50
e 93 50
e 94 50
e 98 50
e 100 50
e 53 51
e 54 51
e 56 51
e 63 51
e 68 51
e 69 51
e 70 51
e 71 51
e 74 51
e 76 51
e 77 51
e 81 51
e 84 51
e 85 51
e 86 51
e 89 51
e 90 51
e 97 51
e 100 51
e 53 52
e 59 52
e 61 52
e 63 52
e 64 52
e 72 52
e 76 52
e 89 52
e 91 52
e 92 52
e 94 52
e 96 52
e 97 52
e 100 52
e 54 53
e 55 53
e 60 53
e 63 53
e 64 53
e 65 53
e 66 53
e 67 53
e 69 53
e 70 53
e 78 53
e 81 53
e 90 53
e 91 53
e 55 54
e 57 54
e 59 54
e 60 54
e 63 54
e 64 54
e 84 54
e 85 54
e 92 54
e 99 54
e 56 55
e 58 55
e 65 55
e 72 55
e 78 55
e 82 55
e 83 55
e 84 55
e 90 55
e 92 55
e 96 55
e 61 56
e 63 56
e 64 56
e 66 56
e 70 56
e 72 56
e 76 56
e 84 56
e 95 56
e 98 56
e 61 57
e 62 57
e 63 57
e 67 57
e 72 57
e 74 57
e 75 57
e 76 57
e 84 57
e 86 57
e 94 57
e 98 57
e 59 58
e 60 58
e 65 58
e 71 58
e 78 58
e 79 58
e 86 58
e 88 58
e 93 58
e 98 58
e 60 59
e 64 59
e 66 59
e 74 59
e 77 59
e 78 59
e 82 59
e 83 59
e 86 59
e 93 59
e 94 59
e 96 59
e 100 59
e 68 60
e 70 60
e 74 60
e 76 60
e 79 60
e 86 60
e 95 60
e 98 60
e 64 61
e 67 61
e 69 61
e 73 61
e 80 61
e 81 61
e 83 61
e 85 61
e 92 61
e 94 61
e 67 62
e 69 62
e 71 62
e 77 62
e 79 62
e 80 62
e 82 62
e 85 62
e 86 62
e 90 62
e 94 62
e 99 62
e 100 62
e 69 63
e 72 63
e 73 63
e 74 63
e 75 63
e 77 63
e 81 63
e 88 63
e 91 63
e 97 63
e 100 63
e 71 64
e 72 64
e 74 64
e 77 64
e 78 64
e 81 64
e 83 64
e 87 64
e 90 64
e 91 64
e 94 64
e 95 64
e 96 64
e 99 64
e 100 64
e 68 65
e 69 65
e 75 65
e 76 65
e 81 65
e 85 65
e 86 65
e 88 65
e 94 65
e 99 65
e 100 65
e 70 66
e 77 66
e 79 66
e 80 66
e 87 66
e 88 66
e 91 66
e 94 66
e 96 66
e 97 66
e 98 66
e 74 67
e 75 67
e 78 67
e 80 67
e 81 67
e 83 67
e 84 67
e 86 67
e 87 67
e 88 67
e 95 67
e 69 68
e 74 68
e 78 68
e 80 68
e 81 68
e 82 68
e 87 68
e 88 68
e 94 68
e 97 68
e 74 69
e 82 69
e 86 69
e 89 69
e 93 69
e 94 69
e 97 69
e 99 69
e 74 70
e 83 70
e 87 70
e 90 70
e 94 70
e 95 70
e 96 70
e 75 71
e 78 71
e 79 71
e 80 71
e 86 71
e 87 71
e 91 71
e 95 71
e 97 71
e 99 71
e 75 72
e 77 72
e 83 72
e 86 72
e 89 72
e 93 72
e 97 72
e 77 73
e 78 73
e 79 73
e 86 73
e 90 73
e 94 73
e 95 73
e 96 73
e 100 73
e 79 74
e 81 74
e 88 74
e 92 74
e 97 74
e 100 74
e 76 75
e 77 75
e 79 75
e 83 75
e 85 75
e 94 75
e 84 76
e 86 76
e 94 76
e 97 76
e 98 76
e 79 77
e 81 77
e 82 77
e 87 77
e 89 77
e 91 77
e 92 77
e 94 77
e 96 77
e 80 78
e 83 78
e 86 78
e 87 78
e 89 78
e 90 78
e 91 78
e 94 78
e 95 78
e 82 79
e 92 79
e 93 79
e 95 79
e 98 79
e 99 79
e 100 79
e 81 80
e 85 80
e 96 80
e 97 80
e 98 80
e 82 81
e 93 81
e 95 81
e 96 81
e 98 81
e 83 82
e 84 82
e 95 82
e 97 82
e 99 82
e 84 83
e 86 83
e 90 83
e 100 83
e 91 84
e 95 84
e 91 85
e 94 85
e 100 85
e 88 86
e 90 86
e 91 86
e 92 86
e 93 86
e 88 87
e 92 87
e 93 87
e 94 87
e 95 87
e 98 87
e 91 88
e 93 88
e 96 88
e 92 89
e 95 89
e 98 89
e 100 89
e 91 90
e 100 90
e 93 91
e 96 92
e 100 92
e 94 93
e 100 93
e 97 94
e 98 95
e 100 95
e 98 97
e 100 97
